
Gurobi 12.0.2 (mac64[arm]) logging started Fri Jun 13 14:26:22 2025

Set parameter LogFile to value "/Users/yurunfeng/Documents/GitHub/LRGTS-store-location/result/gurobi/snyder/88nodes/88-0.8-3.log"
Gurobi Optimizer version 12.0.2 build v12.0.2rc0 (mac64[arm] - Darwin 24.5.0 24F74)

CPU model: Apple M4
Thread count: 10 physical cores, 10 logical processors, using up to 10 threads

Non-default parameters:
TimeLimit  1200

Optimize a model with 728288 rows, 1378696 columns and 6524758 nonzeros
Model fingerprint: 0x61de5628
Variable types: 689304 continuous, 689392 integer (689392 binary)
Coefficient statistics:
  Matrix range     [2e-01, 1e+00]
  Objective range  [8e+00, 7e+06]
  Bounds range     [1e+00, 1e+00]
  RHS range        [1e+00, 3e+00]
Found heuristic solution: objective 4.484057e+07
Presolve removed 15664 rows and 7832 columns (presolve time = 5s)...
Presolve removed 15664 rows and 7832 columns (presolve time = 10s)...
Presolve removed 15664 rows and 7832 columns
Presolve time: 11.57s
Presolved: 712624 rows, 1370864 columns, 5831441 nonzeros
Variable types: 681472 continuous, 689392 integer (689392 binary)
Deterministic concurrent LP optimizer: primal simplex, dual simplex, and barrier
Showing barrier log only...

Root barrier log...

Elapsed ordering time = 6s
Ordering time: 8.16s

Barrier performed 0 iterations in 21.97 seconds (43.06 work units)
Barrier solve interrupted - model solved by another algorithm

Concurrent spin time: 6.17s (can be avoided by choosing Method=3)

Solved with dual simplex

Root simplex log...

Iteration    Objective       Primal Inf.    Dual Inf.      Time
   11180    1.5989123e+06   0.000000e+00   0.000000e+00     22s

Root relaxation: objective 1.598912e+06, 11180 iterations, 9.95 seconds (9.27 work units)

    Nodes    |    Current Node    |     Objective Bounds      |     Work
 Expl Unexpl |  Obj  Depth IntInf | Incumbent    BestBd   Gap | It/Node Time

     0     0 1598912.35    0 2402 4.4841e+07 1598912.35  96.4%     -   24s
H    0     0                    5033550.7404 1598912.35  68.2%     -   35s
H    0     0                    3887494.7851 1598912.35  58.9%     -   42s
H    0     0                    3599878.8994 1598912.35  55.6%     -   43s
     0     0 1651412.04    0 3972 3599878.90 1651412.04  54.1%     -   98s
     0     0 1653844.48    0 3975 3599878.90 1653844.48  54.1%     -  104s
     0     0 1654043.45    0 4084 3599878.90 1654043.45  54.1%     -  111s
     0     0 1654064.88    0 4081 3599878.90 1654064.88  54.1%     -  117s
     0     0 1654090.11    0 4157 3599878.90 1654090.11  54.1%     -  120s
     0     0 1654093.40    0 4232 3599878.90 1654093.40  54.1%     -  123s
     0     0 1654094.02    0 4245 3599878.90 1654094.02  54.1%     -  125s
H    0     0                    3597828.3349 1654142.62  54.0%     -  131s
H    0     0                    3572466.8409 1654142.62  53.7%     -  131s
H    0     0                    3559150.4043 1654142.62  53.5%     -  132s
H    0     0                    3551251.7015 1654142.62  53.4%     -  132s
H    0     0                    3551251.6248 1654142.62  53.4%     -  132s
     0     0 1655819.70    0 4199 3551251.62 1655819.70  53.4%     -  145s
     0     0 1655896.57    0 4202 3551251.62 1655896.57  53.4%     -  147s
     0     0 1655896.69    0 4203 3551251.62 1655896.69  53.4%     -  148s
     0     0 1655907.84    0 4277 3551251.62 1655907.84  53.4%     -  156s
     0     0 1655909.49    0 4343 3551251.62 1655909.49  53.4%     -  157s
     0     0 1655910.37    0 4277 3551251.62 1655910.37  53.4%     -  158s
     0     0 1655943.68    0 4301 3551251.62 1655943.68  53.4%     -  163s
     0     0 1655959.99    0 4285 3551251.62 1655959.99  53.4%     -  166s
     0     0 1655962.48    0 4290 3551251.62 1655962.48  53.4%     -  167s
     0     0 1700672.26    0 4434 3551251.62 1700672.26  52.1%     -  232s
     0     0 1702187.39    0 4803 3551251.62 1702187.39  52.1%     -  266s
     0     0 1702189.96    0 4531 3551251.62 1702189.96  52.1%     -  267s
     0     0 1705717.24    0 4853 3551251.62 1705717.24  52.0%     -  298s
     0     0 1705777.81    0 4661 3551251.62 1705777.81  52.0%     -  300s
     0     0 1706951.07    0 4843 3551251.62 1706951.07  51.9%     -  313s
     0     0 1706973.01    0 4854 3551251.62 1706973.01  51.9%     -  314s
     0     0 1707274.74    0 4835 3551251.62 1707274.74  51.9%     -  318s
     0     0 1707275.02    0 4833 3551251.62 1707275.02  51.9%     -  319s
     0     0 1707315.71    0 4844 3551251.62 1707315.71  51.9%     -  320s
     0     0 1707315.87    0 4852 3551251.62 1707315.87  51.9%     -  321s
     0     0 1743353.18    0 5233 3551251.62 1743353.18  50.9%     -  381s
     0     0 1743841.16    0 5190 3551251.62 1743841.16  50.9%     -  386s
     0     0 1743916.40    0 5278 3551251.62 1743916.40  50.9%     -  390s
     0     0 1743944.47    0 5337 3551251.62 1743944.47  50.9%     -  392s
     0     0 1743950.15    0 5394 3551251.62 1743950.15  50.9%     -  394s
     0     0 1743954.84    0 5285 3551251.62 1743954.84  50.9%     -  394s
     0     0 1743955.23    0 5285 3551251.62 1743955.23  50.9%     -  395s
     0     0 1743956.17    0 5285 3551251.62 1743956.17  50.9%     -  395s
     0     0 1743957.42    0 5368 3551251.62 1743957.42  50.9%     -  397s
     0     0 1743957.77    0 5399 3551251.62 1743957.77  50.9%     -  397s
     0     0 1743966.43    0 5360 3551251.62 1743966.43  50.9%     -  398s
H    0     0                    3551251.5876 1743989.49  50.9%     -  402s
H    0     0                    3543158.4037 1743989.49  50.8%     -  410s
H    0     0                    3534889.9785 1743989.49  50.7%     -  410s
H    0     0                    3533945.4674 1743989.49  50.7%     -  411s
H    0     0                    3533732.8421 1743989.49  50.6%     -  411s
H    0     0                    3533266.6969 1743989.49  50.6%     -  411s
H    0     0                    3530577.1854 1743989.49  50.6%     -  413s
H    0     0                    3530034.7172 1743989.49  50.6%     -  413s
     0     0 1757556.53    0 5362 3530034.72 1757556.53  50.2%     -  452s
     0     0 1757593.88    0 5269 3530034.72 1757593.88  50.2%     -  454s
     0     0 1757598.70    0 5285 3530034.72 1757598.70  50.2%     -  455s
     0     0 1757599.14    0 5279 3530034.72 1757599.14  50.2%     -  456s
     0     0 1757599.70    0 5281 3530034.72 1757599.70  50.2%     -  456s
     0     0 1757603.09    0 5287 3530034.72 1757603.09  50.2%     -  456s
     0     0 1757604.26    0 5397 3530034.72 1757604.26  50.2%     -  460s
     0     0 1761727.48    0 5749 3530034.72 1761727.48  50.1%     -  486s
     0     0 1762647.38    0 5814 3530034.72 1762647.38  50.1%     -  496s
     0     0 1762647.65    0 5813 3530034.72 1762647.65  50.1%     -  497s
     0     0 1762775.43    0 5819 3530034.72 1762775.43  50.1%     -  501s
     0     0 1762821.36    0 5819 3530034.72 1762821.36  50.1%     -  504s
     0     0 1762828.44    0 5813 3530034.72 1762828.44  50.1%     -  505s
     0     0 1789552.02    0 5899 3530034.72 1789552.02  49.3%     -  742s
     0     0 1790024.79    0 5990 3530034.72 1790024.79  49.3%     -  754s
     0     0 1790121.10    0 6123 3530034.72 1790121.10  49.3%     -  761s
     0     0 1790127.03    0 6212 3530034.72 1790127.03  49.3%     -  764s
     0     0 1790127.38    0 6213 3530034.72 1790127.38  49.3%     -  764s
     0     0 1790127.88    0 6213 3530034.72 1790127.88  49.3%     -  765s

Cutting planes:
  Cover: 8
  Implied bound: 152
  Clique: 15
  MIR: 225
  Flow cover: 1977
  Mod-K: 1
  RLT: 67
  Relax-and-lift: 4
  BQP: 11

Explored 1 nodes (190594 simplex iterations) in 1200.10 seconds (2685.92 work units)
Thread count was 10 (of 10 available processors)

Solution count 10: 3.53003e+06 3.53058e+06 3.53327e+06 ... 3.57247e+06

Time limit reached
Best objective 3.530034717196e+06, best bound 1.790129026753e+06, gap 49.2886%
